6 32 4 10
4 17 5 3 13 5 4 17 5 5 14 6 8 15 16 13 7 15 4 15 15 16 4 16 12 13 11 8 1 11 2 20 
1.27 1.6 3.6 2.8 7.48 2.24 4.2 3.52 3.4 1.29 0.74 5.3 6.66 5.48 6.09 7.05 6.3 4.96 0.61 5.27 3.98 7.53 1.38 4.66 4.93 3.1 7.6 3.97 3.36 4.93 7.31 7.4 
7.52 3.04 4.69 4.02 6.83 7.62 5.22 4.63 4.12 5.02 7.52 4.93 5.35 0.64 3.44 3.88 6.94 1.34 3.03 5.4 2.71 6.96 6.56 4.03 4.96 5.34 2.06 2.42 7.48 1.42 6.89 0.07 
1.34 5.05 5.45 1.88 6.69 6.57 5.23 4.19 5.08 7.24 6.06 5.11 7.02 3.6 2.65 1.32 1.49 5.52 0.37 4.21 1.41 0.24 1.21 5.6 5.83 2.07 5.69 3.61 6.4 5.93 0.27 3.49 
6.76 2.79 7.89 1.43 0.31 5.21 7.03 1.42 1.85 4.79 6.63 5.2 1.4 1.05 6.93 3.09 6.98 7.38 1.42 7.94 5.73 1.11 0.24 0.66 0.66 1.53 4.38 1.49 5.29 6.98 2.15 7.87 
4 4 4 4 4 4 4 4 4 4 4 4 4 4 4 4 4 4 4 4 4 4 4 4 4 4 4 4 4 4 4 4 
6.17 5.85 6.19 3.18 0.79 3.36 6.75 5.48 7.34 3.2 4.46 3.49 7.6 4.56 1.04 4.3 5.18 2.67 1.15 2.9 0.72 6.95 0.27 7.48 7.5 2.99 3.06 4.71 2.07 0.88 6.31 5.31 
1 1 1 1 1 1 1 1 1 1 1 1 1 1 1 1 1 1 1 1 1 1 1 1 1 1 1 1 1 1 1 1 
1 1 1 1 1 1 1 1 1 1 1 1 1 1 1 1 1 1 1 1 1 1 1 1 1 1 1 1 1 1 1 1 
1 1 1 1 1 1 1 1 1 1 1 1 1 1 1 1 1 1 1 1 1 1 1 1 1 1 1 1 1 1 1 1 
1 1 1 1 1 1 1 1 1 1 1 1 1 1 1 1 1 1 1 1 1 1 1 1 1 1 1 1 1 1 1 1 
1 1 1 1 1 1 1 1 1 1 1 1 1 1 1 1 1 1 1 1 1 1 1 1 1 1 1 1 1 1 1 1 
1 1 1 1 1 1 1 1 1 1 1 1 1 1 1 1 1 1 1 1 1 1 1 1 1 1 1 1 1 1 1 1 
0.01 0.01 0.01 0.01 0.01 0.01 0.01 0.01 0.01 0.01 0.01 0.01 0.01 0.01 0.01 0.01 0.01 0.01 0.01 0.01 0.01 0.01 0.01 0.01 0.01 0.01 0.01 0.01 0.01 0.01 0.01 0.01 
0.02 0.02 0.02 0.02 0.02 0.02 0.02 0.02 0.02 0.02 0.02 0.02 0.02 0.02 0.02 0.02 0.02 0.02 0.02 0.02 0.02 0.02 0.02 0.02 0.02 0.02 0.02 0.02 0.02 0.02 0.02 0.02 
0.03 0.03 0.03 0.03 0.03 0.03 0.03 0.03 0.03 0.03 0.03 0.03 0.03 0.03 0.03 0.03 0.03 0.03 0.03 0.03 0.03 0.03 0.03 0.03 0.03 0.03 0.03 0.03 0.03 0.03 0.03 0.03 
0.04 0.04 0.04 0.04 0.04 0.04 0.04 0.04 0.04 0.04 0.04 0.04 0.04 0.04 0.04 0.04 0.04 0.04 0.04 0.04 0.04 0.04 0.04 0.04 0.04 0.04 0.04 0.04 0.04 0.04 0.04 0.04 
0.05 0.05 0.05 0.05 0.05 0.05 0.05 0.05 0.05 0.05 0.05 0.05 0.05 0.05 0.05 0.05 0.05 0.05 0.05 0.05 0.05 0.05 0.05 0.05 0.05 0.05 0.05 0.05 0.05 0.05 0.05 0.05 
1 1 1 1 1 1 1 1 1 1 1 1 1 1 1 1 1 1 1 1 1 1 1 1 1 1 1 1 1 1 1 1 
